This is Ipopt version 3.12.13, running with linear solver ma57.

Number of nonzeros in equality constraint Jacobian...:        0
Number of nonzeros in inequality constraint Jacobian.:    50544
Number of nonzeros in Lagrangian Hessian.............:       21

Total number of variables............................:        6
                     variables with only lower bounds:        0
                variables with lower and upper bounds:        6
                     variables with only upper bounds:        0
Total number of equality constraints.................:        0
Total number of inequality constraints...............:     8424
        inequality constraints with only lower bounds:        0
   inequality constraints with lower and upper bounds:        0
        inequality constraints with only upper bounds:     8424

iter    objective    inf_pr   inf_du lg(mu)  ||d||  lg(rg) alpha_du alpha_pr  ls
   0  1.6793541e-04 0.00e+00 1.82e+01   0.0 0.00e+00    -  0.00e+00 0.00e+00   0
   1  1.6727085e-04 0.00e+00 1.10e-02  -5.7 1.31e-04    -  9.89e-01 1.00e+00f  1
   2  7.7866329e-04 0.00e+00 1.17e-02  -1.8 7.88e+00    -  2.01e-02 1.64e-02f  1
   3  1.7978484e-03 0.00e+00 1.31e-01  -1.8 5.72e+00    -  7.85e-02 1.89e-02f  1
   4  2.2687631e-03 0.00e+00 2.43e+00  -1.8 1.46e+00    -  9.92e-01 4.36e-02f  1
   5  2.3238002e-03 0.00e+00 3.20e-03  -1.8 6.16e-02    -  1.00e+00 1.00e+00h  1
   6  2.3227090e-03 0.00e+00 1.17e-05  -2.7 2.35e-04    -  1.00e+00 1.00e+00h  1
   7  2.3123717e-03 0.00e+00 4.58e-03  -4.1 1.22e-03    -  9.86e-01 1.00e+00h  1
   8  1.7841999e-03 0.00e+00 1.42e-04  -4.1 1.24e-01    -  1.00e+00 1.00e+00h  1
   9  1.8342982e-03 0.00e+00 4.99e-05  -4.1 4.29e-02    -  1.00e+00 1.00e+00h  1
iter    objective    inf_pr   inf_du lg(mu)  ||d||  lg(rg) alpha_du alpha_pr  ls
  10  1.8790648e-03 0.00e+00 2.52e-05  -4.1 1.43e-02    -  1.00e+00 1.00e+00h  1
  11  1.4884365e-03 0.00e+00 7.58e-03  -6.1 7.00e-02    -  4.87e-01 1.00e+00h  1
  12  6.5498471e-04 0.00e+00 4.38e-03  -6.1 1.54e-01    -  3.99e-01 1.00e+00h  1
  13  1.1960663e-04 0.00e+00 3.33e-03  -6.1 9.31e-02    -  2.49e-01 1.00e+00h  1
  14  1.8010736e-04 0.00e+00 6.45e-06  -5.0 2.75e-02    -  9.95e-01 1.00e+00h  1
  15  1.1353157e-04 0.00e+00 4.34e-06  -5.1 2.13e-02    -  1.00e+00 1.00e+00h  1
  16  2.5670495e-06 0.00e+00 2.33e-04 -11.0 4.14e-02    -  6.11e-01 1.00e+00h  1
  17  1.4521163e-08 0.00e+00 1.58e-07  -7.4 1.79e-02    -  9.98e-01 1.00e+00h  1
  18  4.2659175e-14 0.00e+00 2.00e-08 -11.0 4.95e-04    -  9.94e-01 1.00e+00h  1

Number of Iterations....: 18

                                   (scaled)                 (unscaled)
Objective...............:   4.2659175470051872e-14    4.2659175470051872e-14
Dual infeasibility......:   2.0023550281739573e-08    2.0023550281739573e-08
Constraint violation....:   0.0000000000000000e+00    0.0000000000000000e+00
Complementarity.........:   1.7294367437672464e-09    1.7294367437672464e-09
Overall NLP error.......:   2.0023550281739573e-08    2.0023550281739573e-08


Number of objective function evaluations             = 19
Number of objective gradient evaluations             = 19
Number of equality constraint evaluations            = 0
Number of inequality constraint evaluations          = 19
Number of equality constraint Jacobian evaluations   = 0
Number of inequality constraint Jacobian evaluations = 19
Number of Lagrangian Hessian evaluations             = 18
Total CPU secs in IPOPT (w/o function evaluations)   =      0.106
Total CPU secs in NLP function evaluations           =      0.090

EXIT: Optimal Solution Found.
